NAME          COPTPROB
OBJSENSE
  MIN
ROWS
 N  __OBJ___
 L  C28     
 L  C54     
 L  C98     
 L  C116    
 L  C126    
 L  C135    
 L  C140    
 L  C179    
 L  C191    
COLUMNS
    MARKER    'MARKER'                 'INTORG'
    x10       __OBJ___  322
    x10       C54       -1
    x10       C140      -1
    x16       __OBJ___  390
    x16       C98       -1
    x16       C135      -1
    x73       __OBJ___  553
    x73       C126      -1
    x73       C191      -1
    x101      __OBJ___  433
    x101      C28       -1
    x101      C191      -1
    x138      __OBJ___  663
    x138      C54       -1
    x138      C135      -1
    x150      __OBJ___  115
    x150      C28       -1
    x151      __OBJ___  606
    x151      C116      -1
    x151      C179      -1
    x225      __OBJ___  578
    x225      C28       -1
    x225      C179      -1
    x241      __OBJ___  336
    x241      C98       -1
    x241      C126      -1
    x369      __OBJ___  35
    x369      C116      -1
    x369      C140      -1
    MARKER    'MARKER'                 'INTEND'
RHS
    RHS       __OBJ___  -29217
    RHS       C28       -1
    RHS       C54       -1
    RHS       C98       -1
    RHS       C116      -1
    RHS       C126      -1
    RHS       C135      -1
    RHS       C140      -1
    RHS       C179      -1
    RHS       C191      -1
BOUNDS
 UP BOUND     x10       1
 UP BOUND     x16       1
 UP BOUND     x73       1
 UP BOUND     x101      1
 UP BOUND     x138      1
 UP BOUND     x150      1
 UP BOUND     x151      1
 UP BOUND     x225      1
 UP BOUND     x241      1
 UP BOUND     x369      1
ENDATA
